p cnf 10 50
-3 -5 -6 0
-4 -5 10 0
1 10 -6 0
8 4 -6 0
-8 -5 1 0
9 -5 -10 0
-3 -2 -8 0
-3 -7 -5 0
1 3 -6 0
-3 -8 -10 0
8 1 4 0
-7 -3 -5 0
6 -7 -2 0
10 1 8 0
5 -10 4 0
-3 4 10 0
4 -7 -2 0
-4 1 -3 0
10 -2 9 0
-4 -10 2 0
-4 10 5 0
-6 -4 9 0
-3 9 7 0
-10 -6 -7 0
-2 -8 -7 0
-1 7 -6 0
-5 1 10 0
10 -5 3 0
-1 -8 -4 0
9 -3 -2 0
-4 9 -2 0
-8 10 2 0
-5 -10 -2 0
6 -9 -4 0
4 7 9 0
7 -4 6 0
-3 -7 -9 0
-9 6 2 0
6 -7 10 0
-4 5 -6 0
8 9 -4 0
-1 4 -3 0
2 -1 4 0
9 3 6 0
2 10 9 0
-1 -9 7 0
-10 -2 -5 0
-5 6 -9 0
2 3 6 0
10 -7 -1 0